17	4	3
14	12	13	13	27	31	31	
0	0	0	0	0	1	8	8	4	2	6	3	2	3	4
9	4	0	0	0	5	8	5	1	1	7	3	5	7	17
5	6	0	2	0	2	6	10	5	5	1	3	8	9	10
6	5	0	10	1	6	7	1	3	10	5	2	15	17
1	8	0	0	3	2	9	2	8	7	6	3	6	12	13
225	2	0	0	8	7	8	4	4	1	5	3	11	16	17
225	3	0	0	6	10	5	2	4	5	2	3	11	13	17
75	5	0	2	3	10	6	8	9	1	2	2	14	17
250	0	9	9	0	10	7	8	10	10	7	1	17
125	6	5	0	0	4	1	6	6	8	2	1	11
125	6	7	0	2	1	5	9	4	8	10	1	15
25	0	8	9	0	8	7	4	9	1	9	2	14	15
2	0	5	8	0	1	1	4	8	10	5	1	17
7	0	0	0	7	9	10	1	7	9	1	2	17	17
1	9	7	8	0	3	3	1	8	9	9	2	17	17
6	9	5	2	0	10	9	3	9	2	1	2	17	17
0	0	0	0	0	8	10	8	2	9	9	0
